14 1276
0 179 121 166 124 123 125 120 119 118 153 126 122 140
179 0 173 182 176 175 177 172 171 170 181 178 174 180
121 173 0 160 82 69 95 42 41 40 147 108 56 134
166 182 160 0 163 162 164 159 158 157 168 165 161 167
124 176 82 163 0 84 98 81 80 79 150 111 83 137
123 175 69 162 84 0 97 68 67 66 149 110 70 136
125 177 95 164 98 97 0 94 93 92 151 112 96 138
120 172 42 159 81 68 94 0 28 27 146 107 55 133
119 171 41 158 80 67 93 28 0 14 145 106 54 132
118 170 40 157 79 66 92 27 14 0 144 105 53 131
153 181 147 168 150 149 151 146 145 144 0 152 148 154
126 178 108 165 111 110 112 107 106 105 152 0 109 139
122 174 56 161 83 70 96 55 54 53 148 109 0 135
140 180 134 167 137 136 138 133 132 131 154 139 135 0
